NAME: tsp10_13
COMMENT: 10-tsp problem (Padberg/Rinaldi)
TYPE: TSP
DIMENSION: 10
EDGE_WEIGHT_TYPE : EUC_2D
NODE_COORD_SECTION
1.00 31.33 26.24
2.00 21.60 3.52
3.00 39.10 16.24
4.00 21.93 3.93
5.00 17.67 33.72
6.00 27.44 18.18
7.00 14.60 25.45
8.00 18.38 18.10
9.00 28.12 22.80
10.00 7.58 21.48
